<?xml version = "1.0" standalone="yes"?>
<!-- This file has been generated by DOcplex version 2.23.222  -->
<CPLEXSolution version="1.0">
 <header
   problemName="CVRP"
   objectiveValue="15767.7"
  />
 <variables>
  <variable name="x_0_1" index="0" value="1.00000"/>
  <variable name="x_0_2" index="1" value="1.00000"/>
  <variable name="x_0_3" index="2" value="1.00000"/>
  <variable name="x_0_4" index="3" value="1.00000"/>
  <variable name="x_0_7" index="6" value="1.00000"/>
  <variable name="x_0_8" index="7" value="1.00000"/>
  <variable name="x_0_10" index="9" value="1.00000"/>
  <variable name="x_0_12" index="11" value="1.00000"/>
  <variable name="x_0_16" index="15" value="1.00000"/>
  <variable name="x_0_18" index="17" value="1.00000"/>
  <variable name="x_0_19" index="18" value="1.00000"/>
  <variable name="x_0_20" index="19" value="1.00000"/>
  <variable name="x_0_21" index="20" value="1.00000"/>
  <variable name="x_1_0" index="21" value="1.00000"/>
  <variable name="x_2_0" index="42" value="1.00000"/>
  <variable name="x_3_13" index="75" value="1.00000"/>
  <variable name="x_4_0" index="84" value="1.00000"/>
  <variable name="x_5_0" index="105" value="1.00000"/>
  <variable name="x_6_0" index="126" value="1.00000"/>
  <variable name="x_7_0" index="147" value="1.00000"/>
  <variable name="x_8_0" index="168" value="1.00000"/>
  <variable name="x_9_11" index="199" value="1.00000"/>
  <variable name="x_10_17" index="226" value="1.00000"/>
  <variable name="x_11_0" index="231" value="1.00000"/>
  <variable name="x_12_5" index="257" value="1.00000"/>
  <variable name="x_13_0" index="273" value="1.00000"/>
  <variable name="x_14_0" index="294" value="1.00000"/>
  <variable name="x_15_0" index="315" value="1.00000"/>
  <variable name="x_16_14" index="350" value="1.00000"/>
  <variable name="x_17_0" index="357" value="1.00000"/>
  <variable name="x_18_0" index="378" value="1.00000"/>
  <variable name="x_19_15" index="414" value="1.00000"/>
  <variable name="x_20_9" index="429" value="1.00000"/>
  <variable name="x_21_6" index="447" value="1.00000"/>
  <variable name="u_1" index="462" value="34.00000"/>
  <variable name="u_2" index="463" value="51.00000"/>
  <variable name="u_3" index="464" value="34.00000"/>
  <variable name="u_4" index="465" value="44.00000"/>
  <variable name="u_5" index="466" value="50.00000"/>
  <variable name="u_6" index="467" value="47.00000"/>
  <variable name="u_7" index="468" value="39.00000"/>
  <variable name="u_8" index="469" value="23.00000"/>
  <variable name="u_9" index="470" value="29.00000"/>
  <variable name="u_10" index="471" value="7.00000"/>
  <variable name="u_11" index="472" value="45.00000"/>
  <variable name="u_12" index="473" value="27.00000"/>
  <variable name="u_13" index="474" value="48.00000"/>
  <variable name="u_14" index="475" value="43.00000"/>
  <variable name="u_15" index="476" value="51.00000"/>
  <variable name="u_16" index="477" value="18.00000"/>
  <variable name="u_17" index="478" value="45.00000"/>
  <variable name="u_18" index="479" value="48.00000"/>
  <variable name="u_19" index="480" value="44.00000"/>
  <variable name="u_20" index="481" value="19.00000"/>
  <variable name="u_21" index="482" value="38.00000"/>
 </variables>
</CPLEXSolution>
